c preprocessed version of HanoiTowerGraph_4_3, 60 vertices, 156 edges
p td 60 156
0 1
0 19
0 20
42 0
41 0
1 2
38 1
42 1
41 1
39 1
3 2
17 2
18 2
19 2
56 2
4 3
5 3
6 3
3 50
56 3
4 5
4 6
4 49
4 48
5 6
5 18
5 31
6 7
6 23
55 6
8 7
7 29
30 7
31 7
55 7
9 8
27 8
8 28
25 8
43 8
9 10
27 9
9 28
41 9
40 9
11 10
32 10
10 33
10 34
53 10
11 12
49 11
11 50
11 22
53 11
12 13
49 12
12 50
12 33
14 13
52 13
13 37
13 33
14 15
14 52
14 37
14 32
35 14
15 16
15 45
15 24
15 46
17 16
16 20
16 21
16 51
17 18
17 19
17 30
54 17
18 19
18 31
19 20
21 20
20 51
22 21
21 51
41 21
22 23
48 22
22 47
23 24
48 23
23 47
25 24
45 24
24 46
26 25
44 25
25 38
43 25
26 27
26 44
26 38
26 42
27 28
42 27
28 29
28 34
30 29
31 29
29 34
30 31
30 32
54 30
32 33
32 34
35 32
33 34
35 36
35 53
36 37
36 50
36 53
38 37
50 37
52 37
39 38
44 38
40 39
43 39
40 41
40 43
42 41
44 45
44 52
45 46
52 45
47 46
46 51
48 47
47 51
49 48
49 50
55 54
56 54
55 56
57 59
57 21
57 22
57 58
58 59
58 23
58 24
59 15
59 16
